
Gurobi 10.0.1 (win64) logging started Tue Mar 21 21:58:58 2023

Set parameter LogFile to value "logFiles/N-1L-180D/N-1L-7U-36F-23V-180D-b-varprod.log"
Gurobi Optimizer version 10.0.1 build v10.0.1rc0 (win64)

CPU model: Intel(R) Core(TM) i7-10700 CPU @ 2.90GHz, instruction set [SSE2|AVX|AVX2]
Thread count: 8 physical cores, 16 logical processors, using up to 16 threads

Optimize a model with 55501 rows, 842979 columns and 5388383 nonzeros
Model fingerprint: 0x62516b04
Variable types: 1647 continuous, 841332 integer (841332 binary)
Coefficient statistics:
  Matrix range     [1e+00, 2e+05]
  Objective range  [4e+01, 2e+07]
  Bounds range     [1e+00, 1e+00]
  RHS range        [1e+00, 3e+06]
Presolve removed 29498 rows and 90712 columns (presolve time = 5s) ...
Presolve removed 29515 rows and 90725 columns
Presolve time: 9.41s
Presolved: 25986 rows, 752254 columns, 4382033 nonzeros
Variable types: 1661 continuous, 750593 integer (750593 binary)
Deterministic concurrent LP optimizer: primal simplex, dual simplex, and barrier
Showing barrier log only...

Root barrier log...

Elapsed ordering time = 7s
Ordering time: 8.46s

Barrier statistics:
 AA' NZ     : 1.896e+06
 Factor NZ  : 6.041e+06 (roughly 400 MB of memory)
 Factor Ops : 5.625e+09 (less than 1 second per iteration)
 Threads    : 5

                  Objective                Residual
Iter       Primal          Dual         Primal    Dual     Compl     Time
   0  -5.35695149e+16  1.75778404e+12  7.57e+09 6.30e+05  2.32e+11    24s
   1  -1.34784664e+16  2.23530483e+12  1.91e+09 5.25e+05  5.88e+10    25s
   2  -1.83055030e+15  2.00752535e+12  2.62e+08 1.86e-09  8.13e+09    25s
   3  -6.93257783e+13  1.65119996e+12  9.92e+06 2.10e-09  3.09e+08    26s
   4  -8.56772896e+12  1.01969778e+12  1.22e+06 2.10e-09  3.94e+07    27s
   5  -2.09022813e+12  7.78204881e+11  2.98e+05 1.86e-09  9.89e+06    27s
   6  -1.18056796e+12  6.34100573e+11  1.68e+05 3.31e-08  5.64e+06    28s
   7  -4.24574534e+11  5.63590805e+11  6.05e+04 3.28e-08  2.20e+06    29s
   8  -1.79270679e+11  4.00549442e+11  2.57e+04 4.17e-08  9.69e+05    29s
   9  -6.11731622e+10  1.69634982e+11  8.93e+03 1.09e-08  3.09e+05    30s
  10  -2.61130497e+10  9.38589112e+10  3.94e+03 1.93e-08  1.37e+05    31s
  11  -1.06784086e+10  3.98453233e+10  1.74e+03 3.76e-08  5.33e+04    32s
  12  -3.93294266e+09  2.67269657e+10  7.85e+02 2.17e-08  2.84e+04    32s
  13  -1.80085712e+09  1.94357021e+10  4.83e+02 1.16e-08  1.88e+04    33s
  14  -3.70520185e+07  1.11999118e+10  2.34e+02 1.01e-08  9.59e+03    34s
  15   2.05233917e+08  1.03511263e+10  2.00e+02 6.81e-09  8.55e+03    34s
  16   8.47562667e+08  7.36076733e+09  1.10e+02 5.82e-09  5.33e+03    35s
  17   1.03693876e+09  5.43361720e+09  8.41e+01 6.77e-09  3.70e+03    36s
  18   1.14203773e+09  5.16819148e+09  6.97e+01 7.82e-09  3.32e+03    37s
  19   1.19700464e+09  4.18027309e+09  6.23e+01 8.35e-09  2.57e+03    38s
  20   1.25683570e+09  3.64314185e+09  5.44e+01 7.93e-09  2.11e+03    39s
  21   1.28376210e+09  3.24277915e+09  5.07e+01 9.56e-09  1.79e+03    40s
  22   1.36741874e+09  3.05185504e+09  3.92e+01 9.57e-09  1.50e+03    41s
  23   1.42955702e+09  2.85840249e+09  3.08e+01 8.73e-09  1.26e+03    42s
  24   1.45598281e+09  2.58838374e+09  2.70e+01 8.76e-09  1.03e+03    43s
  25   1.47158451e+09  2.53323364e+09  2.47e+01 8.73e-09  9.60e+02    44s
  26   1.48878934e+09  2.32392307e+09  2.22e+01 8.98e-09  7.82e+02    45s
  27   1.51974045e+09  2.28927345e+09  1.78e+01 1.18e-08  6.90e+02    47s
  28   1.54225322e+09  2.17022223e+09  1.44e+01 1.00e-08  5.50e+02    48s
  29   1.55111894e+09  2.07700373e+09  1.30e+01 8.57e-09  4.57e+02    49s
  30   1.57413703e+09  2.01084175e+09  9.57e+00 8.14e-09  3.62e+02    50s
  31   1.60404087e+09  1.90664539e+09  5.09e+00 5.91e-09  2.29e+02    51s
  32   1.62237250e+09  1.78006442e+09  2.57e+00 3.91e-09  1.11e+02    52s
  33   1.63073893e+09  1.75542770e+09  1.66e+00 4.00e-09  8.58e+01    53s
  34   1.63131340e+09  1.73897870e+09  1.61e+00 3.68e-09  7.35e+01    54s
  35   1.63417026e+09  1.73113295e+09  1.39e+00 4.15e-09  6.57e+01    54s
  36   1.63540140e+09  1.70963696e+09  1.30e+00 3.25e-09  4.94e+01    55s
  37   1.63886790e+09  1.70139828e+09  1.10e+00 3.30e-09  4.12e+01    56s
  38   1.64220387e+09  1.69531048e+09  9.12e-01 3.39e-09  3.48e+01    57s
  39   1.64679147e+09  1.68465332e+09  6.78e-01 2.89e-09  2.45e+01    58s
  40   1.64868695e+09  1.68078825e+09  6.04e-01 3.28e-09  2.06e+01    59s
  41   1.65081929e+09  1.67836325e+09  5.26e-01 2.57e-09  1.76e+01    60s
  42   1.65381076e+09  1.67640726e+09  4.17e-01 3.11e-09  1.44e+01    61s
  43   1.65594553e+09  1.67506659e+09  3.47e-01 3.69e-09  1.22e+01    62s
  44   1.65711132e+09  1.67410495e+09  3.12e-01 3.40e-09  1.08e+01    63s
  45   1.65888800e+09  1.67270483e+09  2.58e-01 3.44e-09  8.79e+00    64s
  46   1.65980754e+09  1.67221274e+09  2.31e-01 3.37e-09  7.89e+00    65s
  47   1.66093945e+09  1.67172290e+09  1.99e-01 2.75e-09  6.86e+00    66s
  48   1.66169935e+09  1.67135223e+09  1.78e-01 3.00e-09  6.13e+00    67s
  49   1.66195393e+09  1.67111785e+09  1.71e-01 3.03e-09  5.82e+00    68s
  50   1.66295218e+09  1.67073196e+09  1.44e-01 3.34e-09  4.94e+00    69s
  51   1.66360378e+09  1.67026138e+09  1.27e-01 3.00e-09  4.22e+00    70s
  52   1.66413369e+09  1.67004250e+09  1.12e-01 3.24e-09  3.74e+00    71s
  53   1.66487261e+09  1.66987567e+09  9.30e-02 3.04e-09  3.17e+00    72s
  54   1.66550652e+09  1.66958972e+09  7.61e-02 3.26e-09  2.59e+00    73s
  55   1.66597117e+09  1.66934192e+09  6.40e-02 2.99e-09  2.13e+00    74s
  56   1.66633945e+09  1.66925461e+09  5.44e-02 3.64e-09  1.85e+00    75s
  57   1.66691914e+09  1.66915342e+09  3.91e-02 3.73e-09  1.42e+00    76s
  58   1.66725814e+09  1.66899002e+09  3.03e-02 3.37e-09  1.10e+00    77s
  59   1.66768593e+09  1.66887432e+09  1.93e-02 3.27e-09  7.57e-01    79s
  60   1.66789596e+09  1.66878388e+09  1.38e-02 3.12e-09  5.67e-01    80s
  61   1.66799543e+09  1.66869203e+09  1.13e-02 3.04e-09  4.44e-01    81s
  62   1.66820415e+09  1.66855615e+09  6.01e-03 2.05e-09  2.24e-01    82s
  63   1.66827936e+09  1.66852323e+09  4.07e-03 2.75e-09  1.55e-01    83s
  64   1.66834911e+09  1.66850548e+09  2.41e-03 2.32e-09  9.98e-02    84s
  65   1.66840316e+09  1.66848885e+09  1.09e-03 2.12e-09  5.51e-02    85s
  66   1.66842183e+09  1.66846944e+09  6.39e-04 2.31e-09  3.06e-02    86s
  67   1.66842738e+09  1.66846061e+09  5.10e-04 2.13e-09  2.12e-02    87s
  68   1.66843576e+09  1.66845541e+09  3.19e-04 2.08e-09  1.25e-02    87s
  69   1.66844082e+09  1.66845283e+09  2.07e-04 2.22e-09  7.63e-03    88s
  70   1.66844545e+09  1.66845165e+09  1.06e-04 1.84e-09  3.95e-03    89s
  71   1.66844977e+09  1.66845094e+09  1.28e-05 1.90e-09  7.54e-04    89s
  72   1.66845025e+09  1.66845053e+09  3.82e-06 2.09e-09  1.80e-04    90s
  73   1.66845034e+09  1.66845048e+09  2.15e-06 2.14e-09  9.27e-05    91s
  74   1.66845042e+09  1.66845047e+09  6.24e-07 2.11e-09  3.31e-05    92s
  75   1.66845046e+09  1.66845046e+09  6.12e-08 2.02e-09  5.67e-06    92s
  76   1.66845046e+09  1.66845046e+09  3.10e-08 2.20e-09  9.24e-07    94s
  77   1.66845046e+09  1.66845046e+09  1.28e-07 2.56e-09  1.64e-08    95s
  78   1.66845046e+09  1.66845046e+09  1.78e-08 1.96e-09  4.87e-11    95s

Barrier solved model in 78 iterations and 95.48 seconds (60.08 work units)
Optimal objective 1.66845046e+09


Root crossover log...

   21253 DPushes remaining with DInf 0.0000000e+00                96s
       0 DPushes remaining with DInf 0.0000000e+00                99s

     890 PPushes remaining with PInf 0.0000000e+00                99s
       0 PPushes remaining with PInf 0.0000000e+00                99s

  Push phase complete: Pinf 0.0000000e+00, Dinf 3.1763609e-07     99s


Root simplex log...

Iteration    Objective       Primal Inf.    Dual Inf.      Time
   22107    1.6684505e+09   0.000000e+00   0.000000e+00     99s
Concurrent spin time: 0.03s

Solved with barrier
   22107    1.6684505e+09   0.000000e+00   0.000000e+00     99s

Root relaxation: objective 1.668450e+09, 22107 iterations, 87.44 seconds (33.52 work units)
Total elapsed time = 100.15s

    Nodes    |    Current Node    |     Objective Bounds      |     Work
 Expl Unexpl |  Obj  Depth IntInf | Incumbent    BestBd   Gap | It/Node Time

     0     0 1.6685e+09    0  781          - 1.6685e+09      -     -  102s
     0     0 1.6684e+09    0  766          - 1.6684e+09      -     -  170s
     0     0 1.6684e+09    0  763          - 1.6684e+09      -     -  199s
     0     0 1.6684e+09    0  761          - 1.6684e+09      -     -  204s
     0     0 1.6684e+09    0  797          - 1.6684e+09      -     -  217s
     0     0 1.6684e+09    0  773          - 1.6684e+09      -     -  219s
     0     0 1.6684e+09    0  737          - 1.6684e+09      -     -  257s
     0     0 1.6684e+09    0  755          - 1.6684e+09      -     -  272s
     0     0 1.6684e+09    0  765          - 1.6684e+09      -     -  291s
     0     0 1.6684e+09    0  789          - 1.6684e+09      -     -  313s
     0     0 1.6684e+09    0  791          - 1.6684e+09      -     -  314s
     0     0 1.6684e+09    0  816          - 1.6684e+09      -     -  323s
     0     0 1.6684e+09    0  814          - 1.6684e+09      -     -  333s
     0     0 1.6684e+09    0  810          - 1.6684e+09      -     -  339s
     0     0 1.6684e+09    0  795          - 1.6684e+09      -     -  356s
H    0     0                    1.596877e+09 1.6684e+09  4.48%     -  385s
H    0     0                    1.661788e+09 1.6684e+09  0.40%     -  606s
     0     0 1.6684e+09    0  788 1.6618e+09 1.6684e+09  0.40%     -  608s
     0     0 1.6684e+09    0  795 1.6618e+09 1.6684e+09  0.40%     -  611s

Cutting planes:
  Cover: 1
  Implied bound: 2
  MIR: 17
  Flow cover: 24
  GUB cover: 2
  Zero half: 4
  RLT: 1
  Relax-and-lift: 1

Explored 1 nodes (33406 simplex iterations) in 618.38 seconds (619.02 work units)
Thread count was 16 (of 16 available processors)

Solution count 2: 1.66179e+09 1.59688e+09 

Solve interrupted
Best objective 1.661787667342e+09, best bound 1.668427039775e+09, gap 0.3995%
